% Auto-generated by scripts/generate_dzn.py
% problem_type   = regex
% instance       = regex_37
% source_json    = instances_json/2_high_blowup/regex_37.json
% blowup         = 100.96
% representation = NFA

mode = 1;

var_count = 19;
n_constraints = 2;
Q = 15;
S = 3;
q0 = [1, 1];
F = [{15}, {10}];
weights = [8, 9, 9, 2, 10, 3, 1, 6, 9, 8, 1, 8, 8, 6, 5, 2, 2, 4, 4];
d_dfa = array3d(1..2, 1..15, 1..3, [
  % k = 1
    0, 0, 0,
    0, 0, 0,
    0, 0, 0,
    0, 0, 0,
    0, 0, 0,
    0, 0, 0,
    0, 0, 0,
    0, 0, 0,
    0, 0, 0,
    0, 0, 0,
    0, 0, 0,
    0, 0, 0,
    0, 0, 0,
    0, 0, 0,
    0, 0, 0,

  % k = 2
    0, 0, 0,
    0, 0, 0,
    0, 0, 0,
    0, 0, 0,
    0, 0, 0,
    0, 0, 0,
    0, 0, 0,
    0, 0, 0,
    0, 0, 0,
    0, 0, 0,
    0, 0, 0,
    0, 0, 0,
    0, 0, 0,
    0, 0, 0,
    0, 0, 0
]);
d_nfa = array3d(1..2, 1..15, 1..3, [
  % k = 1
    {1, 2}, {1}, {1},
    {3}, {}, {},
    {4}, {4}, {4},
    {5}, {5}, {5},
    {6}, {6}, {6},
    {7}, {7}, {7},
    {8}, {8}, {8},
    {9}, {9}, {9},
    {10}, {10}, {10},
    {11}, {11}, {11},
    {12}, {12}, {12},
    {13}, {13}, {13},
    {14}, {14}, {14},
    {15}, {15}, {15},
    {}, {}, {},

  % k = 2
    {1}, {2}, {1},
    {2}, {3}, {2},
    {3}, {4}, {3},
    {4}, {5}, {4},
    {5}, {6}, {5},
    {6}, {7}, {6},
    {7}, {8}, {7},
    {8}, {9}, {8},
    {9}, {10}, {9},
    {10}, {}, {10},
    {}, {}, {},
    {}, {}, {},
    {}, {}, {},
    {}, {}, {},
    {}, {}, {}
]);
